<number of tasks>
50

<cycle time>
1000

<order strength>
0.603


<task times>
1 129
2 142
3 123
4 105
5 89
6 313
7 241
8 160
9 217
10 68
11 255
12 28
13 130
14 210
15 43
16 113
17 155
18 170
19 94
20 157
21 33
22 120
23 21
24 216
25 177
26 170
27 169
28 164
29 102
30 156
31 134
32 54
33 97
34 91
35 23
36 69
37 87
38 103
39 116
40 62
41 372
42 71
43 179
44 77
45 273
46 142
47 101
48 105
49 152
50 200

<precedence relations>
1,11
2,11
3,39
4,6
4,7
4,8
4,10
5,7
5,9
5,12
6,11
7,11
8,11
9,23
10,11
10,12
10,13
10,14
11,15
11,16
11,17
11,18
11,19
11,20
11,21
12,23
13,23
14,24
14,38
14,40
16,23
16,24
17,26
18,22
18,23
18,26
19,22
19,25
19,41
20,23
21,26
21,38
22,39
23,28
23,29
23,30
23,31
23,32
24,27
24,34
24,41
25,33
26,34
26,36
26,37
27,39
29,34
29,40
29,41
30,35
30,36
30,38
31,34
31,35
31,46
32,35
32,37
33,47
34,39
36,40
36,41
37,41
38,39
39,42
39,43
39,44
39,45
40,46
41,46
41,48
43,47
45,48
46,47
47,49
47,50

<end>
